%% Data: ก่อสร้างโรงงาน — 8 งาน, แรงงาน 10 คน, เครน 2 เครื่อง

n_tasks       = 8;
total_workers = 10;
total_cranes  = 2;

%%              T1  T2  T3  T4  T5  T6  T7  T8
duration      = [ 5,  3,  8,  4,  6,  3,  5,  2];
workers_needed= [ 4,  3,  5,  2,  4,  3,  4,  2];
cranes_needed = [ 1,  0,  2,  1,  1,  0,  1,  0];

%% must_wait_for[i] = งานที่ต้องเสร็จก่อน task i
must_wait_for = [
  {},       % T1: ไม่มี predecessor
  {1},      % T2: ต้องรอ T1
  {1},      % T3: ต้องรอ T1
  {2},      % T4: ต้องรอ T2
  {3},      % T5: ต้องรอ T3
  {4, 5},   % T6: ต้องรอ T4 และ T5
  {3},      % T7: ต้องรอ T3
  {6, 7}    % T8: ต้องรอ T6 และ T7
];
